c Generated by SAT Solver
p cnf 5002 354
101 102 0
201 202 0
301 302 0
401 402 0
501 502 0
601 602 0
701 702 0
801 802 0
901 902 0
1001 1002 0
1101 1102 0
1201 1202 0
1301 1302 0
1401 1402 0
1501 1502 0
1601 1602 0
1701 1702 0
1801 1802 0
1901 1902 0
2001 2002 0
2101 2102 0
2201 2202 0
2301 2302 0
2401 2402 0
2501 2502 0
2601 2602 0
2701 2702 0
2801 2802 0
2901 2902 0
3001 3002 0
3101 3102 0
3201 3202 0
3301 3302 0
3401 3402 0
3501 3502 0
3601 3602 0
3701 3702 0
3801 3802 0
3901 3902 0
4001 4002 0
4101 4102 0
4201 4202 0
4301 4302 0
4401 4402 0
4501 4502 0
4601 4602 0
4701 4702 0
4801 4802 0
4901 4902 0
5001 5002 0
-101 -102 0
-201 -202 0
-301 -302 0
-401 -402 0
-501 -502 0
-601 -602 0
-701 -702 0
-801 -802 0
-901 -902 0
-1001 -1002 0
-1101 -1102 0
-1201 -1202 0
-1301 -1302 0
-1401 -1402 0
-1501 -1502 0
-1601 -1602 0
-1701 -1702 0
-1801 -1802 0
-1901 -1902 0
-2001 -2002 0
-2101 -2102 0
-2201 -2202 0
-2301 -2302 0
-2401 -2402 0
-2501 -2502 0
-2601 -2602 0
-2701 -2702 0
-2801 -2802 0
-2901 -2902 0
-3001 -3002 0
-3101 -3102 0
-3201 -3202 0
-3301 -3302 0
-3401 -3402 0
-3501 -3502 0
-3601 -3602 0
-3701 -3702 0
-3801 -3802 0
-3901 -3902 0
-4001 -4002 0
-4101 -4102 0
-4201 -4202 0
-4301 -4302 0
-4401 -4402 0
-4501 -4502 0
-4601 -4602 0
-4701 -4702 0
-4801 -4802 0
-4901 -4902 0
-5001 -5002 0
-101 -1701 0
-102 -1702 0
-101 -1801 0
-102 -1802 0
-101 -3301 0
-102 -3302 0
-101 -4301 0
-102 -4302 0
-201 -1101 0
-202 -1102 0
-201 -1701 0
-202 -1702 0
-201 -3601 0
-202 -3602 0
-201 -4201 0
-202 -4202 0
-301 -2301 0
-302 -2302 0
-301 -2701 0
-302 -2702 0
-401 -1301 0
-402 -1302 0
-401 -1401 0
-402 -1402 0
-401 -1501 0
-402 -1502 0
-401 -1701 0
-402 -1702 0
-401 -2101 0
-402 -2102 0
-401 -2201 0
-402 -2202 0
-401 -2401 0
-402 -2402 0
-401 -3101 0
-402 -3102 0
-401 -3801 0
-402 -3802 0
-501 -1101 0
-502 -1102 0
-501 -2101 0
-502 -2102 0
-501 -2701 0
-502 -2702 0
-501 -3201 0
-502 -3202 0
-601 -1501 0
-602 -1502 0
-601 -3401 0
-602 -3402 0
-601 -4501 0
-602 -4502 0
-601 -4901 0
-602 -4902 0
-701 -1001 0
-702 -1002 0
-701 -1601 0
-702 -1602 0
-701 -4001 0
-702 -4002 0
-701 -4201 0
-702 -4202 0
-701 -4801 0
-702 -4802 0
-801 -1601 0
-802 -1602 0
-801 -3601 0
-802 -3602 0
-801 -4501 0
-802 -4502 0
-901 -1501 0
-902 -1502 0
-901 -2301 0
-902 -2302 0
-901 -3701 0
-902 -3702 0
-1001 -3001 0
-1002 -3002 0
-1001 -3101 0
-1002 -3102 0
-1001 -3801 0
-1002 -3802 0
-1001 -4401 0
-1002 -4402 0
-1001 -4601 0
-1002 -4602 0
-1101 -2301 0
-1102 -2302 0
-1101 -3401 0
-1102 -3402 0
-1101 -3601 0
-1102 -3602 0
-1101 -4101 0
-1102 -4102 0
-1101 -4901 0
-1102 -4902 0
-1201 -1601 0
-1202 -1602 0
-1201 -2001 0
-1202 -2002 0
-1201 -2101 0
-1202 -2102 0
-1201 -2701 0
-1202 -2702 0
-1201 -3001 0
-1202 -3002 0
-1201 -3401 0
-1202 -3402 0
-1201 -3601 0
-1202 -3602 0
-1301 -4001 0
-1302 -4002 0
-1401 -3101 0
-1402 -3102 0
-1501 -3201 0
-1502 -3202 0
-1501 -3701 0
-1502 -3702 0
-1501 -4101 0
-1502 -4102 0
-1501 -4301 0
-1502 -4302 0
-1501 -4801 0
-1502 -4802 0
-1601 -2001 0
-1602 -2002 0
-1601 -2501 0
-1602 -2502 0
-1601 -3101 0
-1602 -3102 0
-1601 -4301 0
-1602 -4302 0
-1601 -4401 0
-1602 -4402 0
-1601 -4501 0
-1602 -4502 0
-1601 -4701 0
-1602 -4702 0
-1701 -3101 0
-1702 -3102 0
-1701 -4101 0
-1702 -4102 0
-1701 -4601 0
-1702 -4602 0
-1701 -4701 0
-1702 -4702 0
-1801 -2001 0
-1802 -2002 0
-1801 -2401 0
-1802 -2402 0
-1801 -2601 0
-1802 -2602 0
-1801 -3101 0
-1802 -3102 0
-1801 -4201 0
-1802 -4202 0
-1801 -4501 0
-1802 -4502 0
-1801 -4701 0
-1802 -4702 0
-1901 -3101 0
-1902 -3102 0
-1901 -4401 0
-1902 -4402 0
-1901 -4701 0
-1902 -4702 0
-1901 -5001 0
-1902 -5002 0
-2001 -2201 0
-2002 -2202 0
-2001 -2301 0
-2002 -2302 0
-2001 -2701 0
-2002 -2702 0
-2001 -4001 0
-2002 -4002 0
-2101 -3201 0
-2102 -3202 0
-2101 -4801 0
-2102 -4802 0
-2201 -3301 0
-2202 -3302 0
-2301 -2801 0
-2302 -2802 0
-2301 -3001 0
-2302 -3002 0
-2301 -3601 0
-2302 -3602 0
-2301 -4201 0
-2302 -4202 0
-2401 -3901 0
-2402 -3902 0
-2401 -4101 0
-2402 -4102 0
-2401 -4201 0
-2402 -4202 0
-2501 -2801 0
-2502 -2802 0
-2501 -3701 0
-2502 -3702 0
-2601 -2801 0
-2602 -2802 0
-2601 -3101 0
-2602 -3102 0
-2601 -3801 0
-2602 -3802 0
-2801 -3001 0
-2802 -3002 0
-2801 -3101 0
-2802 -3102 0
-2801 -4101 0
-2802 -4102 0
-2901 -3301 0
-2902 -3302 0
-2901 -3501 0
-2902 -3502 0
-2901 -5001 0
-2902 -5002 0
-3001 -3401 0
-3002 -3402 0
-3001 -4801 0
-3002 -4802 0
-3101 -5001 0
-3102 -5002 0
-3201 -3301 0
-3202 -3302 0
-3201 -5001 0
-3202 -5002 0
-3301 -4201 0
-3302 -4202 0
-3401 -3501 0
-3402 -3502 0
-3401 -3801 0
-3402 -3802 0
-3401 -3901 0
-3402 -3902 0
-3501 -3801 0
-3502 -3802 0
-3501 -4801 0
-3502 -4802 0
-3601 -4301 0
-3602 -4302 0
-3601 -5001 0
-3602 -5002 0
-3801 -5001 0
-3802 -5002 0
-4001 -4401 0
-4002 -4402 0
-4001 -4601 0
-4002 -4602 0
-4501 -4601 0
-4502 -4602 0
-4601 -4901 0
-4602 -4902 0
